AES/1_4_4/ssaes_r1-20_c4_rw1_e4_f0_k1-20_aes_min_box_aes_mc_bidirectional/ExperimentMinisat_r20_k14cnf_2011-11-18-083946/Result
WARNING: for repeatability, setting FPU to use double precision
============================[ Problem Statistics ]=============================
|                                                                             |
|  Number of variables:          1488                                         |
|  Number of clauses:            6104                                         |
|  Parse time:                   0.01 s                                       |
|  Eliminated clauses:           0.02 Mb                                      |
|  Simplification time:          0.01 s                                       |
|                                                                             |
=============================[ Search Statistics ]==============================
| Conflicts  |          ORIGINAL         |          LEARNT          | Progress |
|            |    Vars  Clauses Literals |    Limit  Clauses Lit/Cl |          |
================================================================================
|        100 |    1040     4728    15752 |     1733      100     12 |  7.527 % |
|        250 |    1040     4728    15752 |     1906      250     12 |  7.527 % |
|        475 |    1040     4728    15752 |     2097      475     13 |  7.527 % |
|        812 |    1040     4728    15752 |     2307      812     13 |  7.527 % |
|       1318 |    1040     4728    15752 |     2538     1318     15 |  7.527 % |
|       2077 |    1040     4728    15752 |     2791     2077     15 |  7.527 % |
|       3216 |    1040     4728    15752 |     3071     1727     12 |  7.527 % |
|       4924 |    1040     4728    15752 |     3378     1815     12 |  7.527 % |
|       7486 |    1040     4728    15752 |     3716     2622     12 |  7.527 % |
|      11330 |    1040     4728    15752 |     4087     2600     11 |  7.527 % |
|      17096 |    1040     4728    15752 |     4496     4145     12 |  7.527 % |
|      25745 |    1040     4728    15752 |     4946     3518     11 |  7.527 % |
|      38719 |    1040     4728    15752 |     5440     3757      9 |  7.527 % |
===============================================================================
restarts              : 127
conflicts             : 39981          (13141 /sec)
decisions             : 48770          (0.00 % random) (16029 /sec)
propagations          : 14735260       (4843083 /sec)
conflict literals     : 660935         (55.60 % deleted)
Memory used           : 9.00 MB
CPU time              : 3.04254 s

SATISFIABLE
